p cnf 0 0
c K couleurs
17 20 23 26 29 32 35 38 41 44 47 50 53 56 59 62 65 0
18 21 24 27 30 33 36 39 42 45 48 51 54 57 60 63 66 0
19 22 25 28 31 34 37 40 43 46 49 52 55 58 61 64 67 0
1 0
-18 0
-19 0
-22 0
c 1 color par vertex et au plus 1
17 18 19 0
-18 -17 0
-19 -17 0
-19 -18 0
20 21 22 0
-21 -20 0
-22 -20 0
-22 -21 0
23 24 25 0
-24 -23 0
-25 -23 0
-25 -24 0
26 27 28 0
-27 -26 0
-28 -26 0
-28 -27 0
29 30 31 0
-30 -29 0
-31 -29 0
-31 -30 0
32 33 34 0
-33 -32 0
-34 -32 0
-34 -33 0
35 36 37 0
-36 -35 0
-37 -35 0
-37 -36 0
38 39 40 0
-39 -38 0
-40 -38 0
-40 -39 0
41 42 43 0
-42 -41 0
-43 -41 0
-43 -42 0
44 45 46 0
-45 -44 0
-46 -44 0
-46 -45 0
47 48 49 0
-48 -47 0
-49 -47 0
-49 -48 0
50 51 52 0
-51 -50 0
-52 -50 0
-52 -51 0
53 54 55 0
-54 -53 0
-55 -53 0
-55 -54 0
56 57 58 0
-57 -56 0
-58 -56 0
-58 -57 0
59 60 61 0
-60 -59 0
-61 -59 0
-61 -60 0
62 63 64 0
-63 -62 0
-64 -62 0
-64 -63 0
65 66 67 0
-66 -65 0
-67 -65 0
-67 -66 0
c gc coresp to G
-17 -21 68 0
-17 -21 -69 1 0
-17 -21 69 -1 0
-17 -22 70 0
-17 -22 -71 1 0
-17 -22 71 -1 0
-18 -20 68 0
-18 -20 -69 1 0
-18 -20 69 -1 0
-18 -22 72 0
-18 -22 -73 1 0
-18 -22 73 -1 0
-19 -20 70 0
-19 -20 -71 1 0
-19 -20 71 -1 0
-19 -21 72 0
-19 -21 -73 1 0
-19 -21 73 -1 0
-20 -24 68 0
-20 -24 -69 2 0
-20 -24 69 -2 0
-20 -25 70 0
-20 -25 -71 2 0
-20 -25 71 -2 0
-21 -23 68 0
-21 -23 -69 2 0
-21 -23 69 -2 0
-21 -25 72 0
-21 -25 -73 2 0
-21 -25 73 -2 0
-22 -23 70 0
-22 -23 -71 2 0
-22 -23 71 -2 0
-22 -24 72 0
-22 -24 -73 2 0
-22 -24 73 -2 0
-23 -27 68 0
-23 -27 -69 3 0
-23 -27 69 -3 0
-23 -28 70 0
-23 -28 -71 3 0
-23 -28 71 -3 0
-24 -26 68 0
-24 -26 -69 3 0
-24 -26 69 -3 0
-24 -28 72 0
-24 -28 -73 3 0
-24 -28 73 -3 0
-25 -26 70 0
-25 -26 -71 3 0
-25 -26 71 -3 0
-25 -27 72 0
-25 -27 -73 3 0
-25 -27 73 -3 0
-26 -30 68 0
-26 -30 -69 4 0
-26 -30 69 -4 0
-26 -31 70 0
-26 -31 -71 4 0
-26 -31 71 -4 0
-27 -29 68 0
-27 -29 -69 4 0
-27 -29 69 -4 0
-27 -31 72 0
-27 -31 -73 4 0
-27 -31 73 -4 0
-28 -29 70 0
-28 -29 -71 4 0
-28 -29 71 -4 0
-28 -30 72 0
-28 -30 -73 4 0
-28 -30 73 -4 0
-29 -33 68 0
-29 -33 -69 5 0
-29 -33 69 -5 0
-29 -34 70 0
-29 -34 -71 5 0
-29 -34 71 -5 0
-30 -32 68 0
-30 -32 -69 5 0
-30 -32 69 -5 0
-30 -34 72 0
-30 -34 -73 5 0
-30 -34 73 -5 0
-31 -32 70 0
-31 -32 -71 5 0
-31 -32 71 -5 0
-31 -33 72 0
-31 -33 -73 5 0
-31 -33 73 -5 0
-32 -36 68 0
-32 -36 -69 6 0
-32 -36 69 -6 0
-32 -37 70 0
-32 -37 -71 6 0
-32 -37 71 -6 0
-33 -35 68 0
-33 -35 -69 6 0
-33 -35 69 -6 0
-33 -37 72 0
-33 -37 -73 6 0
-33 -37 73 -6 0
-34 -35 70 0
-34 -35 -71 6 0
-34 -35 71 -6 0
-34 -36 72 0
-34 -36 -73 6 0
-34 -36 73 -6 0
-35 -39 68 0
-35 -39 -69 7 0
-35 -39 69 -7 0
-35 -40 70 0
-35 -40 -71 7 0
-35 -40 71 -7 0
-36 -38 68 0
-36 -38 -69 7 0
-36 -38 69 -7 0
-36 -40 72 0
-36 -40 -73 7 0
-36 -40 73 -7 0
-37 -38 70 0
-37 -38 -71 7 0
-37 -38 71 -7 0
-37 -39 72 0
-37 -39 -73 7 0
-37 -39 73 -7 0
-38 -42 68 0
-38 -42 -69 8 0
-38 -42 69 -8 0
-38 -43 70 0
-38 -43 -71 8 0
-38 -43 71 -8 0
-39 -41 68 0
-39 -41 -69 8 0
-39 -41 69 -8 0
-39 -43 72 0
-39 -43 -73 8 0
-39 -43 73 -8 0
-40 -41 70 0
-40 -41 -71 8 0
-40 -41 71 -8 0
-40 -42 72 0
-40 -42 -73 8 0
-40 -42 73 -8 0
-41 -45 68 0
-41 -45 -69 9 0
-41 -45 69 -9 0
-41 -46 70 0
-41 -46 -71 9 0
-41 -46 71 -9 0
-42 -44 68 0
-42 -44 -69 9 0
-42 -44 69 -9 0
-42 -46 72 0
-42 -46 -73 9 0
-42 -46 73 -9 0
-43 -44 70 0
-43 -44 -71 9 0
-43 -44 71 -9 0
-43 -45 72 0
-43 -45 -73 9 0
-43 -45 73 -9 0
-44 -48 68 0
-44 -48 -69 10 0
-44 -48 69 -10 0
-44 -49 70 0
-44 -49 -71 10 0
-44 -49 71 -10 0
-45 -47 68 0
-45 -47 -69 10 0
-45 -47 69 -10 0
-45 -49 72 0
-45 -49 -73 10 0
-45 -49 73 -10 0
-46 -47 70 0
-46 -47 -71 10 0
-46 -47 71 -10 0
-46 -48 72 0
-46 -48 -73 10 0
-46 -48 73 -10 0
-47 -51 68 0
-47 -51 -69 11 0
-47 -51 69 -11 0
-47 -52 70 0
-47 -52 -71 11 0
-47 -52 71 -11 0
-48 -50 68 0
-48 -50 -69 11 0
-48 -50 69 -11 0
-48 -52 72 0
-48 -52 -73 11 0
-48 -52 73 -11 0
-49 -50 70 0
-49 -50 -71 11 0
-49 -50 71 -11 0
-49 -51 72 0
-49 -51 -73 11 0
-49 -51 73 -11 0
-50 -54 68 0
-50 -54 -69 12 0
-50 -54 69 -12 0
-50 -55 70 0
-50 -55 -71 12 0
-50 -55 71 -12 0
-51 -53 68 0
-51 -53 -69 12 0
-51 -53 69 -12 0
-51 -55 72 0
-51 -55 -73 12 0
-51 -55 73 -12 0
-52 -53 70 0
-52 -53 -71 12 0
-52 -53 71 -12 0
-52 -54 72 0
-52 -54 -73 12 0
-52 -54 73 -12 0
-53 -57 68 0
-53 -57 -69 13 0
-53 -57 69 -13 0
-53 -58 70 0
-53 -58 -71 13 0
-53 -58 71 -13 0
-54 -56 68 0
-54 -56 -69 13 0
-54 -56 69 -13 0
-54 -58 72 0
-54 -58 -73 13 0
-54 -58 73 -13 0
-55 -56 70 0
-55 -56 -71 13 0
-55 -56 71 -13 0
-55 -57 72 0
-55 -57 -73 13 0
-55 -57 73 -13 0
-56 -60 68 0
-56 -60 -69 14 0
-56 -60 69 -14 0
-56 -61 70 0
-56 -61 -71 14 0
-56 -61 71 -14 0
-57 -59 68 0
-57 -59 -69 14 0
-57 -59 69 -14 0
-57 -61 72 0
-57 -61 -73 14 0
-57 -61 73 -14 0
-58 -59 70 0
-58 -59 -71 14 0
-58 -59 71 -14 0
-58 -60 72 0
-58 -60 -73 14 0
-58 -60 73 -14 0
-59 -63 68 0
-59 -63 -69 15 0
-59 -63 69 -15 0
-59 -64 70 0
-59 -64 -71 15 0
-59 -64 71 -15 0
-60 -62 68 0
-60 -62 -69 15 0
-60 -62 69 -15 0
-60 -64 72 0
-60 -64 -73 15 0
-60 -64 73 -15 0
-61 -62 70 0
-61 -62 -71 15 0
-61 -62 71 -15 0
-61 -63 72 0
-61 -63 -73 15 0
-61 -63 73 -15 0
-62 -66 68 0
-62 -66 -69 16 0
-62 -66 69 -16 0
-62 -67 70 0
-62 -67 -71 16 0
-62 -67 71 -16 0
-63 -65 68 0
-63 -65 -69 16 0
-63 -65 69 -16 0
-63 -67 72 0
-63 -67 -73 16 0
-63 -67 73 -16 0
-64 -65 70 0
-64 -65 -71 16 0
-64 -65 71 -16 0
-64 -66 72 0
-64 -66 -73 16 0
-64 -66 73 -16 0
c X
-75 17 0
-74 17 0
-75 21 0
-74 21 0
-75 1 0
-74 -1 0
75 -17 -21 -1 0
74 -17 -21 1 0
-77 17 0
-76 17 0
-77 22 0
-76 22 0
-77 1 0
-76 -1 0
77 -17 -22 -1 0
76 -17 -22 1 0
-79 18 0
-78 18 0
-79 20 0
-78 20 0
-79 1 0
-78 -1 0
79 -18 -20 -1 0
78 -18 -20 1 0
-81 18 0
-80 18 0
-81 22 0
-80 22 0
-81 1 0
-80 -1 0
81 -18 -22 -1 0
80 -18 -22 1 0
-83 19 0
-82 19 0
-83 20 0
-82 20 0
-83 1 0
-82 -1 0
83 -19 -20 -1 0
82 -19 -20 1 0
-85 19 0
-84 19 0
-85 21 0
-84 21 0
-85 1 0
-84 -1 0
85 -19 -21 -1 0
84 -19 -21 1 0
-87 20 0
-86 20 0
-87 24 0
-86 24 0
-87 2 0
-86 -2 0
87 -20 -24 -2 0
86 -20 -24 2 0
-89 20 0
-88 20 0
-89 25 0
-88 25 0
-89 2 0
-88 -2 0
89 -20 -25 -2 0
88 -20 -25 2 0
-91 21 0
-90 21 0
-91 23 0
-90 23 0
-91 2 0
-90 -2 0
91 -21 -23 -2 0
90 -21 -23 2 0
-93 21 0
-92 21 0
-93 25 0
-92 25 0
-93 2 0
-92 -2 0
93 -21 -25 -2 0
92 -21 -25 2 0
-95 22 0
-94 22 0
-95 23 0
-94 23 0
-95 2 0
-94 -2 0
95 -22 -23 -2 0
94 -22 -23 2 0
-97 22 0
-96 22 0
-97 24 0
-96 24 0
-97 2 0
-96 -2 0
97 -22 -24 -2 0
96 -22 -24 2 0
-99 23 0
-98 23 0
-99 27 0
-98 27 0
-99 3 0
-98 -3 0
99 -23 -27 -3 0
98 -23 -27 3 0
-101 23 0
-100 23 0
-101 28 0
-100 28 0
-101 3 0
-100 -3 0
101 -23 -28 -3 0
100 -23 -28 3 0
-103 24 0
-102 24 0
-103 26 0
-102 26 0
-103 3 0
-102 -3 0
103 -24 -26 -3 0
102 -24 -26 3 0
-105 24 0
-104 24 0
-105 28 0
-104 28 0
-105 3 0
-104 -3 0
105 -24 -28 -3 0
104 -24 -28 3 0
-107 25 0
-106 25 0
-107 26 0
-106 26 0
-107 3 0
-106 -3 0
107 -25 -26 -3 0
106 -25 -26 3 0
-109 25 0
-108 25 0
-109 27 0
-108 27 0
-109 3 0
-108 -3 0
109 -25 -27 -3 0
108 -25 -27 3 0
-111 26 0
-110 26 0
-111 30 0
-110 30 0
-111 4 0
-110 -4 0
111 -26 -30 -4 0
110 -26 -30 4 0
-113 26 0
-112 26 0
-113 31 0
-112 31 0
-113 4 0
-112 -4 0
113 -26 -31 -4 0
112 -26 -31 4 0
-115 27 0
-114 27 0
-115 29 0
-114 29 0
-115 4 0
-114 -4 0
115 -27 -29 -4 0
114 -27 -29 4 0
-117 27 0
-116 27 0
-117 31 0
-116 31 0
-117 4 0
-116 -4 0
117 -27 -31 -4 0
116 -27 -31 4 0
-119 28 0
-118 28 0
-119 29 0
-118 29 0
-119 4 0
-118 -4 0
119 -28 -29 -4 0
118 -28 -29 4 0
-121 28 0
-120 28 0
-121 30 0
-120 30 0
-121 4 0
-120 -4 0
121 -28 -30 -4 0
120 -28 -30 4 0
-123 29 0
-122 29 0
-123 33 0
-122 33 0
-123 5 0
-122 -5 0
123 -29 -33 -5 0
122 -29 -33 5 0
-125 29 0
-124 29 0
-125 34 0
-124 34 0
-125 5 0
-124 -5 0
125 -29 -34 -5 0
124 -29 -34 5 0
-127 30 0
-126 30 0
-127 32 0
-126 32 0
-127 5 0
-126 -5 0
127 -30 -32 -5 0
126 -30 -32 5 0
-129 30 0
-128 30 0
-129 34 0
-128 34 0
-129 5 0
-128 -5 0
129 -30 -34 -5 0
128 -30 -34 5 0
-131 31 0
-130 31 0
-131 32 0
-130 32 0
-131 5 0
-130 -5 0
131 -31 -32 -5 0
130 -31 -32 5 0
-133 31 0
-132 31 0
-133 33 0
-132 33 0
-133 5 0
-132 -5 0
133 -31 -33 -5 0
132 -31 -33 5 0
-135 32 0
-134 32 0
-135 36 0
-134 36 0
-135 6 0
-134 -6 0
135 -32 -36 -6 0
134 -32 -36 6 0
-137 32 0
-136 32 0
-137 37 0
-136 37 0
-137 6 0
-136 -6 0
137 -32 -37 -6 0
136 -32 -37 6 0
-139 33 0
-138 33 0
-139 35 0
-138 35 0
-139 6 0
-138 -6 0
139 -33 -35 -6 0
138 -33 -35 6 0
-141 33 0
-140 33 0
-141 37 0
-140 37 0
-141 6 0
-140 -6 0
141 -33 -37 -6 0
140 -33 -37 6 0
-143 34 0
-142 34 0
-143 35 0
-142 35 0
-143 6 0
-142 -6 0
143 -34 -35 -6 0
142 -34 -35 6 0
-145 34 0
-144 34 0
-145 36 0
-144 36 0
-145 6 0
-144 -6 0
145 -34 -36 -6 0
144 -34 -36 6 0
-147 35 0
-146 35 0
-147 39 0
-146 39 0
-147 7 0
-146 -7 0
147 -35 -39 -7 0
146 -35 -39 7 0
-149 35 0
-148 35 0
-149 40 0
-148 40 0
-149 7 0
-148 -7 0
149 -35 -40 -7 0
148 -35 -40 7 0
-151 36 0
-150 36 0
-151 38 0
-150 38 0
-151 7 0
-150 -7 0
151 -36 -38 -7 0
150 -36 -38 7 0
-153 36 0
-152 36 0
-153 40 0
-152 40 0
-153 7 0
-152 -7 0
153 -36 -40 -7 0
152 -36 -40 7 0
-155 37 0
-154 37 0
-155 38 0
-154 38 0
-155 7 0
-154 -7 0
155 -37 -38 -7 0
154 -37 -38 7 0
-157 37 0
-156 37 0
-157 39 0
-156 39 0
-157 7 0
-156 -7 0
157 -37 -39 -7 0
156 -37 -39 7 0
-159 38 0
-158 38 0
-159 42 0
-158 42 0
-159 8 0
-158 -8 0
159 -38 -42 -8 0
158 -38 -42 8 0
-161 38 0
-160 38 0
-161 43 0
-160 43 0
-161 8 0
-160 -8 0
161 -38 -43 -8 0
160 -38 -43 8 0
-163 39 0
-162 39 0
-163 41 0
-162 41 0
-163 8 0
-162 -8 0
163 -39 -41 -8 0
162 -39 -41 8 0
-165 39 0
-164 39 0
-165 43 0
-164 43 0
-165 8 0
-164 -8 0
165 -39 -43 -8 0
164 -39 -43 8 0
-167 40 0
-166 40 0
-167 41 0
-166 41 0
-167 8 0
-166 -8 0
167 -40 -41 -8 0
166 -40 -41 8 0
-169 40 0
-168 40 0
-169 42 0
-168 42 0
-169 8 0
-168 -8 0
169 -40 -42 -8 0
168 -40 -42 8 0
-171 41 0
-170 41 0
-171 45 0
-170 45 0
-171 9 0
-170 -9 0
171 -41 -45 -9 0
170 -41 -45 9 0
-173 41 0
-172 41 0
-173 46 0
-172 46 0
-173 9 0
-172 -9 0
173 -41 -46 -9 0
172 -41 -46 9 0
-175 42 0
-174 42 0
-175 44 0
-174 44 0
-175 9 0
-174 -9 0
175 -42 -44 -9 0
174 -42 -44 9 0
-177 42 0
-176 42 0
-177 46 0
-176 46 0
-177 9 0
-176 -9 0
177 -42 -46 -9 0
176 -42 -46 9 0
-179 43 0
-178 43 0
-179 44 0
-178 44 0
-179 9 0
-178 -9 0
179 -43 -44 -9 0
178 -43 -44 9 0
-181 43 0
-180 43 0
-181 45 0
-180 45 0
-181 9 0
-180 -9 0
181 -43 -45 -9 0
180 -43 -45 9 0
-183 44 0
-182 44 0
-183 48 0
-182 48 0
-183 10 0
-182 -10 0
183 -44 -48 -10 0
182 -44 -48 10 0
-185 44 0
-184 44 0
-185 49 0
-184 49 0
-185 10 0
-184 -10 0
185 -44 -49 -10 0
184 -44 -49 10 0
-187 45 0
-186 45 0
-187 47 0
-186 47 0
-187 10 0
-186 -10 0
187 -45 -47 -10 0
186 -45 -47 10 0
-189 45 0
-188 45 0
-189 49 0
-188 49 0
-189 10 0
-188 -10 0
189 -45 -49 -10 0
188 -45 -49 10 0
-191 46 0
-190 46 0
-191 47 0
-190 47 0
-191 10 0
-190 -10 0
191 -46 -47 -10 0
190 -46 -47 10 0
-193 46 0
-192 46 0
-193 48 0
-192 48 0
-193 10 0
-192 -10 0
193 -46 -48 -10 0
192 -46 -48 10 0
-195 47 0
-194 47 0
-195 51 0
-194 51 0
-195 11 0
-194 -11 0
195 -47 -51 -11 0
194 -47 -51 11 0
-197 47 0
-196 47 0
-197 52 0
-196 52 0
-197 11 0
-196 -11 0
197 -47 -52 -11 0
196 -47 -52 11 0
-199 48 0
-198 48 0
-199 50 0
-198 50 0
-199 11 0
-198 -11 0
199 -48 -50 -11 0
198 -48 -50 11 0
-201 48 0
-200 48 0
-201 52 0
-200 52 0
-201 11 0
-200 -11 0
201 -48 -52 -11 0
200 -48 -52 11 0
-203 49 0
-202 49 0
-203 50 0
-202 50 0
-203 11 0
-202 -11 0
203 -49 -50 -11 0
202 -49 -50 11 0
-205 49 0
-204 49 0
-205 51 0
-204 51 0
-205 11 0
-204 -11 0
205 -49 -51 -11 0
204 -49 -51 11 0
-207 50 0
-206 50 0
-207 54 0
-206 54 0
-207 12 0
-206 -12 0
207 -50 -54 -12 0
206 -50 -54 12 0
-209 50 0
-208 50 0
-209 55 0
-208 55 0
-209 12 0
-208 -12 0
209 -50 -55 -12 0
208 -50 -55 12 0
-211 51 0
-210 51 0
-211 53 0
-210 53 0
-211 12 0
-210 -12 0
211 -51 -53 -12 0
210 -51 -53 12 0
-213 51 0
-212 51 0
-213 55 0
-212 55 0
-213 12 0
-212 -12 0
213 -51 -55 -12 0
212 -51 -55 12 0
-215 52 0
-214 52 0
-215 53 0
-214 53 0
-215 12 0
-214 -12 0
215 -52 -53 -12 0
214 -52 -53 12 0
-217 52 0
-216 52 0
-217 54 0
-216 54 0
-217 12 0
-216 -12 0
217 -52 -54 -12 0
216 -52 -54 12 0
-219 53 0
-218 53 0
-219 57 0
-218 57 0
-219 13 0
-218 -13 0
219 -53 -57 -13 0
218 -53 -57 13 0
-221 53 0
-220 53 0
-221 58 0
-220 58 0
-221 13 0
-220 -13 0
221 -53 -58 -13 0
220 -53 -58 13 0
-223 54 0
-222 54 0
-223 56 0
-222 56 0
-223 13 0
-222 -13 0
223 -54 -56 -13 0
222 -54 -56 13 0
-225 54 0
-224 54 0
-225 58 0
-224 58 0
-225 13 0
-224 -13 0
225 -54 -58 -13 0
224 -54 -58 13 0
-227 55 0
-226 55 0
-227 56 0
-226 56 0
-227 13 0
-226 -13 0
227 -55 -56 -13 0
226 -55 -56 13 0
-229 55 0
-228 55 0
-229 57 0
-228 57 0
-229 13 0
-228 -13 0
229 -55 -57 -13 0
228 -55 -57 13 0
-231 56 0
-230 56 0
-231 60 0
-230 60 0
-231 14 0
-230 -14 0
231 -56 -60 -14 0
230 -56 -60 14 0
-233 56 0
-232 56 0
-233 61 0
-232 61 0
-233 14 0
-232 -14 0
233 -56 -61 -14 0
232 -56 -61 14 0
-235 57 0
-234 57 0
-235 59 0
-234 59 0
-235 14 0
-234 -14 0
235 -57 -59 -14 0
234 -57 -59 14 0
-237 57 0
-236 57 0
-237 61 0
-236 61 0
-237 14 0
-236 -14 0
237 -57 -61 -14 0
236 -57 -61 14 0
-239 58 0
-238 58 0
-239 59 0
-238 59 0
-239 14 0
-238 -14 0
239 -58 -59 -14 0
238 -58 -59 14 0
-241 58 0
-240 58 0
-241 60 0
-240 60 0
-241 14 0
-240 -14 0
241 -58 -60 -14 0
240 -58 -60 14 0
-243 59 0
-242 59 0
-243 63 0
-242 63 0
-243 15 0
-242 -15 0
243 -59 -63 -15 0
242 -59 -63 15 0
-245 59 0
-244 59 0
-245 64 0
-244 64 0
-245 15 0
-244 -15 0
245 -59 -64 -15 0
244 -59 -64 15 0
-247 60 0
-246 60 0
-247 62 0
-246 62 0
-247 15 0
-246 -15 0
247 -60 -62 -15 0
246 -60 -62 15 0
-249 60 0
-248 60 0
-249 64 0
-248 64 0
-249 15 0
-248 -15 0
249 -60 -64 -15 0
248 -60 -64 15 0
-251 61 0
-250 61 0
-251 62 0
-250 62 0
-251 15 0
-250 -15 0
251 -61 -62 -15 0
250 -61 -62 15 0
-253 61 0
-252 61 0
-253 63 0
-252 63 0
-253 15 0
-252 -15 0
253 -61 -63 -15 0
252 -61 -63 15 0
-255 62 0
-254 62 0
-255 66 0
-254 66 0
-255 16 0
-254 -16 0
255 -62 -66 -16 0
254 -62 -66 16 0
-257 62 0
-256 62 0
-257 67 0
-256 67 0
-257 16 0
-256 -16 0
257 -62 -67 -16 0
256 -62 -67 16 0
-259 63 0
-258 63 0
-259 65 0
-258 65 0
-259 16 0
-258 -16 0
259 -63 -65 -16 0
258 -63 -65 16 0
-261 63 0
-260 63 0
-261 67 0
-260 67 0
-261 16 0
-260 -16 0
261 -63 -67 -16 0
260 -63 -67 16 0
-263 64 0
-262 64 0
-263 65 0
-262 65 0
-263 16 0
-262 -16 0
263 -64 -65 -16 0
262 -64 -65 16 0
-265 64 0
-264 64 0
-265 66 0
-264 66 0
-265 16 0
-264 -16 0
265 -64 -66 -16 0
264 -64 -66 16 0
c x suite
-68 -69 75 79 87 91 99 103 111 115 123 127 135 139 147 151 159 163 171 175 183 187 195 199 207 211 219 223 231 235 243 247 255 259 0
-70 -71 77 83 89 95 101 107 113 119 125 131 137 143 149 155 161 167 173 179 185 191 197 203 209 215 221 227 233 239 245 251 257 263 0
-72 -73 81 85 93 97 105 109 117 121 129 133 141 145 153 157 165 169 177 181 189 193 201 205 213 217 225 229 237 241 249 253 261 265 0
-68 69 74 78 86 90 98 102 110 114 122 126 134 138 146 150 158 162 170 174 182 186 194 198 206 210 218 222 230 234 242 246 254 258 0
-70 71 76 82 88 94 100 106 112 118 124 130 136 142 148 154 160 166 172 178 184 190 196 202 208 214 220 226 232 238 244 250 256 262 0
-72 73 80 84 92 96 104 108 116 120 128 132 140 144 152 156 164 168 176 180 188 192 200 204 212 216 224 228 236 240 248 252 260 264 0
c proper colo
-17 -20 0
-18 -21 0
-19 -22 0
-20 -23 0
-21 -24 0
-22 -25 0
-23 -26 0
-24 -27 0
-25 -28 0
-26 -29 0
-27 -30 0
-28 -31 0
-29 -32 0
-30 -33 0
-31 -34 0
-32 -35 0
-33 -36 0
-34 -37 0
-35 -38 0
-36 -39 0
-37 -40 0
-38 -41 0
-39 -42 0
-40 -43 0
-41 -44 0
-42 -45 0
-43 -46 0
-44 -47 0
-45 -48 0
-46 -49 0
-47 -50 0
-48 -51 0
-49 -52 0
-50 -53 0
-51 -54 0
-52 -55 0
-53 -56 0
-54 -57 0
-55 -58 0
-56 -59 0
-57 -60 0
-58 -61 0
-59 -62 0
-60 -63 0
-61 -64 0
-62 -65 0
-63 -66 0
-64 -67 0
68 266 0
70 267 0
72 268 0
-266 70 0
-266 72 0
-266 71 73 0
-266 -71 -73 0
266 -70 -72 71 -73 0
266 -70 -72 -71 73 0
-267 68 0
-267 72 0
-267 69 73 0
-267 -69 -73 0
267 -68 -72 69 -73 0
267 -68 -72 -69 73 0
-268 68 0
-268 70 0
-268 69 71 0
-268 -69 -71 0
268 -68 -70 69 -71 0
268 -68 -70 -69 71 0
